NAME F-JSSP-SDST
ROWS
 N  OBJ
 E  c0      
 E  c1      
 E  c2      
 E  c3      
 E  c4      
 E  c5      
 E  c6      
 E  c7      
 E  c8      
 E  c9      
 E  c10     
 E  c11     
 E  c12     
 E  c13     
 E  c14     
 E  c15     
 E  c16     
 E  c17     
 E  c18     
 E  c19     
 E  c20     
 E  c21     
 E  c22     
 E  c23     
 L  c24     
 L  c25     
 L  c26     
 L  c27     
 L  c28     
 L  c29     
 L  c30     
 L  c31     
 L  c32     
 L  c33     
 L  c34     
 L  c35     
 L  c36     
 L  c37     
 L  c38     
 L  c39     
 L  c40     
 L  c41     
 L  c42     
 L  c43     
 L  c44     
 L  c45     
 L  c46     
 L  c47     
 G  c48     
 G  c49     
 G  c50     
 G  c51     
 G  c52     
 G  c53     
 G  c54     
 G  c55     
 G  c56     
 G  c57     
 G  c58     
 G  c59     
 G  c60     
 G  c61     
 G  c62     
 G  c63     
 G  c64     
 G  c65     
 G  c66     
 G  c67     
 G  c68     
 G  c69     
 G  c70     
 G  c71     
 G  c72     
 G  c73     
 G  c74     
 G  c75     
 G  c76     
 G  c77     
 G  c78     
 G  c79     
 G  c80     
 G  c81     
 G  c82     
 G  c83     
 G  c84     
 G  c85     
 G  c86     
 G  c87     
 G  c88     
 G  c89     
 G  c90     
 G  c91     
 G  c92     
 G  c93     
 G  c94     
 G  c95     
 G  c96     
 G  c97     
 G  c98     
 G  c99     
 G  c100    
 G  c101    
 G  c102    
 G  c103    
 G  c104    
 G  c105    
 G  c106    
 G  c107    
 G  c108    
 G  c109    
 G  c110    
 G  c111    
 G  c112    
 G  c113    
 G  c114    
 G  c115    
 G  c116    
 G  c117    
 G  c118    
 G  c119    
 G  c120    
 G  c121    
 G  c122    
 G  c123    
 G  c124    
 G  c125    
 G  c126    
 G  c127    
 G  c128    
 G  c129    
 G  c130    
 G  c131    
 G  c132    
 G  c133    
 G  c134    
 G  c135    
 G  c136    
 G  c137    
 G  c138    
 G  c139    
 G  c140    
 G  c141    
 G  c142    
 G  c143    
 G  c144    
 G  c145    
 G  c146    
 G  c147    
 G  c148    
 G  c149    
 G  c150    
 G  c151    
 G  c152    
 G  c153    
 G  c154    
 G  c155    
 G  c156    
 G  c157    
 G  c158    
 G  c159    
 G  c160    
 G  c161    
 G  c162    
 G  c163    
 G  c164    
 G  c165    
 G  c166    
 G  c167    
 G  c168    
 G  c169    
 G  c170    
 G  c171    
 G  c172    
 G  c173    
 G  c174    
 G  c175    
 G  c176    
 G  c177    
 G  c178    
 G  c179    
 G  c180    
 G  c181    
 G  c182    
 G  c183    
 G  c184    
 E  c185    
COLUMNS
    MARKER    'MARKER'                 'INTORG'
    B0(12)    c0        1
    B0(12)    c24       -4320000
    B0(12)    c48       -1440
    B0(12)    c67       -4320000
    B0(12)    c68       -4320000
    B0(12)    c69       -4320000
    B0(12)    c70       -4320000
    B0(12)    c71       -4320000
    B0(12)    c72       -4320000
    B0(12)    c73       -4320000
    B0(12)    c74       -4320000
    B0(12)    c185      -1440
    B1(12)    c1        1
    B1(12)    c25       -4320000
    B1(12)    c49       -2880
    B1(12)    c75       -4320000
    B1(12)    c76       -4320000
    B1(12)    c77       -4320000
    B1(12)    c78       -4320000
    B1(12)    c79       -4320000
    B1(12)    c80       -4320000
    B1(12)    c81       -4320000
    B1(12)    c82       -4320000
    B1(12)    c185      -2880
    B2(12)    c2        1
    B2(12)    c26       -4320000
    B2(12)    c50       -2880
    B2(12)    c83       -4320000
    B2(12)    c84       -4320000
    B2(12)    c85       -4320000
    B2(12)    c86       -4320000
    B2(12)    c87       -4320000
    B2(12)    c88       -4320000
    B2(12)    c89       -4320000
    B2(12)    c90       -4320000
    B2(12)    c185      -2880
    B3(14)    c3        1
    B3(14)    c27       -4320000
    B3(14)    c51       -1440
    B3(14)    c91       -4320000
    B3(14)    c92       -4320000
    B3(14)    c93       -4320000
    B3(14)    c94       -4320000
    B3(14)    c95       -4320000
    B3(14)    c96       -4320000
    B3(14)    c97       -4320000
    B3(14)    c98       -4320000
    B3(14)    c99       -4320000
    B3(14)    c100      -4320000
    B3(14)    c185      -1440
    B4(7)     c4        1
    B4(7)     c28       -4320000
    B4(7)     c101      -4320000
    B4(7)     c102      -4320000
    B4(7)     c103      -4320000
    B4(7)     c104      -4320000
    B4(7)     c185      -1440
    B5(12)    c5        1
    B5(12)    c29       -4320000
    B5(12)    c52       -1440
    B5(12)    c67       -4320000
    B5(12)    c68       -4320000
    B5(12)    c105      -4320000
    B5(12)    c106      -4320000
    B5(12)    c107      -4320000
    B5(12)    c108      -4320000
    B5(12)    c109      -4320000
    B5(12)    c110      -4320000
    B5(12)    c185      -1440
    B6(14)    c6        1
    B6(14)    c30       -4320000
    B6(14)    c53       -1440
    B6(14)    c91       -4320000
    B6(14)    c92       -4320000
    B6(14)    c111      -4320000
    B6(14)    c112      -4320000
    B6(14)    c113      -4320000
    B6(14)    c114      -4320000
    B6(14)    c115      -4320000
    B6(14)    c116      -4320000
    B6(14)    c117      -4320000
    B6(14)    c118      -4320000
    B6(14)    c185      -1440
    B7(12)    c7        1
    B7(12)    c31       -4320000
    B7(12)    c54       -1440
    B7(12)    c83       -4320000
    B7(12)    c84       -4320000
    B7(12)    c119      -4320000
    B7(12)    c120      -4320000
    B7(12)    c121      -4320000
    B7(12)    c122      -4320000
    B7(12)    c123      -4320000
    B7(12)    c124      -4320000
    B7(12)    c185      -1440
    B8(8)     c8        1
    B8(8)     c32       -4320000
    B8(8)     c55       -1440
    B8(8)     c101      -4320000
    B8(8)     c102      -4320000
    B8(8)     c125      -4320000
    B8(8)     c126      -4320000
    B8(8)     c185      -1440
    B9(11)    c9        1
    B9(11)    c33       -4320000
    B9(11)    c75       -4320000
    B9(11)    c76       -4320000
    B9(11)    c127      -4320000
    B9(11)    c128      -4320000
    B9(11)    c129      -4320000
    B9(11)    c130      -4320000
    B9(11)    c131      -4320000
    B9(11)    c132      -4320000
    B9(11)    c185      -1440
    B10(13)   c10       1
    B10(13)   c34       -4320000
    B10(13)   c56       -1440
    B10(13)   c69       -4320000
    B10(13)   c70       -4320000
    B10(13)   c105      -4320000
    B10(13)   c106      -4320000
    B10(13)   c133      -4320000
    B10(13)   c134      -4320000
    B10(13)   c135      -4320000
    B10(13)   c136      -4320000
    B10(13)   c171      -2880
    B10(13)   c185      -1440
    B11(9)    c11       1
    B11(9)    c35       -4320000
    B11(9)    c57       -2880
    B11(9)    c103      -4320000
    B11(9)    c104      -4320000
    B11(9)    c125      -4320000
    B11(9)    c126      -4320000
    B11(9)    c172      -2880
    B11(9)    c185      -2880
    B12(13)   c12       1
    B12(13)   c36       -4320000
    B12(13)   c58       -4320
    B12(13)   c77       -4320000
    B12(13)   c78       -4320000
    B12(13)   c127      -4320000
    B12(13)   c128      -4320000
    B12(13)   c137      -4320000
    B12(13)   c138      -4320000
    B12(13)   c139      -4320000
    B12(13)   c140      -4320000
    B12(13)   c173      -2880
    B12(13)   c185      -4320
    B13(13)   c13       1
    B13(13)   c37       -4320000
    B13(13)   c59       -1440
    B13(13)   c85       -4320000
    B13(13)   c86       -4320000
    B13(13)   c119      -4320000
    B13(13)   c120      -4320000
    B13(13)   c141      -4320000
    B13(13)   c142      -4320000
    B13(13)   c143      -4320000
    B13(13)   c144      -4320000
    B13(13)   c174      -2880
    B13(13)   c185      -1440
    B14(14)   c14       1
    B14(14)   c38       -4320000
    B14(14)   c93       -4320000
    B14(14)   c94       -4320000
    B14(14)   c111      -4320000
    B14(14)   c112      -4320000
    B14(14)   c145      -4320000
    B14(14)   c146      -4320000
    B14(14)   c147      -4320000
    B14(14)   c148      -4320000
    B14(14)   c149      -4320000
    B14(14)   c150      -4320000
    B14(14)   c175      -2880
    B14(14)   c185      -1440
    B15(13)   c15       1
    B15(13)   c39       -4320000
    B15(13)   c60       -1440
    B15(13)   c71       -4320000
    B15(13)   c72       -4320000
    B15(13)   c107      -4320000
    B15(13)   c108      -4320000
    B15(13)   c133      -4320000
    B15(13)   c134      -4320000
    B15(13)   c151      -4320000
    B15(13)   c152      -4320000
    B15(13)   c176      -1440
    B15(13)   c185      -1440
    B16(13)   c16       1
    B16(13)   c40       -4320000
    B16(13)   c61       -2880
    B16(13)   c87       -4320000
    B16(13)   c88       -4320000
    B16(13)   c121      -4320000
    B16(13)   c122      -4320000
    B16(13)   c141      -4320000
    B16(13)   c142      -4320000
    B16(13)   c153      -4320000
    B16(13)   c154      -4320000
    B16(13)   c177      -1440
    B16(13)   c185      -2880
    B17(13)   c17       1
    B17(13)   c41       -4320000
    B17(13)   c62       -2880
    B17(13)   c79       -4320000
    B17(13)   c80       -4320000
    B17(13)   c129      -4320000
    B17(13)   c130      -4320000
    B17(13)   c137      -4320000
    B17(13)   c138      -4320000
    B17(13)   c155      -4320000
    B17(13)   c156      -4320000
    B17(13)   c178      -1440
    B17(13)   c185      -2880
    B18(14)   c18       1
    B18(14)   c42       -4320000
    B18(14)   c95       -4320000
    B18(14)   c96       -4320000
    B18(14)   c113      -4320000
    B18(14)   c114      -4320000
    B18(14)   c145      -4320000
    B18(14)   c146      -4320000
    B18(14)   c157      -4320000
    B18(14)   c158      -4320000
    B18(14)   c159      -4320000
    B18(14)   c160      -4320000
    B18(14)   c179      -1440
    B18(14)   c185      -2880
    B19(12)   c19       1
    B19(12)   c43       -4320000
    B19(12)   c63       -2880
    B19(12)   c73       -4320000
    B19(12)   c74       -4320000
    B19(12)   c109      -4320000
    B19(12)   c110      -4320000
    B19(12)   c135      -4320000
    B19(12)   c136      -4320000
    B19(12)   c151      -4320000
    B19(12)   c152      -4320000
    B19(12)   c185      -2880
    B20(12)   c20       1
    B20(12)   c44       -4320000
    B20(12)   c64       -1440
    B20(12)   c89       -4320000
    B20(12)   c90       -4320000
    B20(12)   c123      -4320000
    B20(12)   c124      -4320000
    B20(12)   c143      -4320000
    B20(12)   c144      -4320000
    B20(12)   c153      -4320000
    B20(12)   c154      -4320000
    B20(12)   c185      -1440
    B21(12)   c21       1
    B21(12)   c45       -4320000
    B21(12)   c65       -1440
    B21(12)   c97       -4320000
    B21(12)   c98       -4320000
    B21(12)   c115      -4320000
    B21(12)   c116      -4320000
    B21(12)   c147      -4320000
    B21(12)   c148      -4320000
    B21(12)   c157      -4320000
    B21(12)   c158      -4320000
    B21(12)   c185      -1440
    B22(12)   c22       1
    B22(12)   c46       -4320000
    B22(12)   c66       -1440
    B22(12)   c81       -4320000
    B22(12)   c82       -4320000
    B22(12)   c131      -4320000
    B22(12)   c132      -4320000
    B22(12)   c139      -4320000
    B22(12)   c140      -4320000
    B22(12)   c155      -4320000
    B22(12)   c156      -4320000
    B22(12)   c185      -1440
    B23(11)   c23       1
    B23(11)   c47       -4320000
    B23(11)   c99       -4320000
    B23(11)   c100      -4320000
    B23(11)   c117      -4320000
    B23(11)   c118      -4320000
    B23(11)   c149      -4320000
    B23(11)   c150      -4320000
    B23(11)   c159      -4320000
    B23(11)   c160      -4320000
    B23(11)   c185      -1440
    B24(2)    c67       -4320000
    B24(2)    c68       4320000
    B25(2)    c69       -4320000
    B25(2)    c70       4320000
    B26(2)    c71       -4320000
    B26(2)    c72       4320000
    B27(2)    c73       -4320000
    B27(2)    c74       4320000
    B28(2)    c75       -4320000
    B28(2)    c76       4320000
    B29(2)    c77       -4320000
    B29(2)    c78       4320000
    B30(2)    c79       -4320000
    B30(2)    c80       4320000
    B31(2)    c81       -4320000
    B31(2)    c82       4320000
    B32(2)    c83       -4320000
    B32(2)    c84       4320000
    B33(2)    c85       -4320000
    B33(2)    c86       4320000
    B34(2)    c87       -4320000
    B34(2)    c88       4320000
    B35(2)    c89       -4320000
    B35(2)    c90       4320000
    B36(2)    c91       -4320000
    B36(2)    c92       4320000
    B37(2)    c93       -4320000
    B37(2)    c94       4320000
    B38(2)    c95       -4320000
    B38(2)    c96       4320000
    B39(2)    c97       -4320000
    B39(2)    c98       4320000
    B40(2)    c99       -4320000
    B40(2)    c100      4320000
    B41(2)    c101      -4320000
    B41(2)    c102      4320000
    B42(2)    c103      -4320000
    B42(2)    c104      4320000
    B43(2)    c105      -4320000
    B43(2)    c106      4320000
    B44(2)    c107      -4320000
    B44(2)    c108      4320000
    B45(2)    c109      -4320000
    B45(2)    c110      4320000
    B46(2)    c111      -4320000
    B46(2)    c112      4320000
    B47(2)    c113      -4320000
    B47(2)    c114      4320000
    B48(2)    c115      -4320000
    B48(2)    c116      4320000
    B49(2)    c117      -4320000
    B49(2)    c118      4320000
    B50(2)    c119      -4320000
    B50(2)    c120      4320000
    B51(2)    c121      -4320000
    B51(2)    c122      4320000
    B52(2)    c123      -4320000
    B52(2)    c124      4320000
    B53(2)    c125      -4320000
    B53(2)    c126      4320000
    B54(2)    c127      -4320000
    B54(2)    c128      4320000
    B55(2)    c129      -4320000
    B55(2)    c130      4320000
    B56(2)    c131      -4320000
    B56(2)    c132      4320000
    B57(2)    c133      -4320000
    B57(2)    c134      4320000
    B58(2)    c135      -4320000
    B58(2)    c136      4320000
    B59(2)    c137      -4320000
    B59(2)    c138      4320000
    B60(2)    c139      -4320000
    B60(2)    c140      4320000
    B61(2)    c141      -4320000
    B61(2)    c142      4320000
    B62(2)    c143      -4320000
    B62(2)    c144      4320000
    B63(2)    c145      -4320000
    B63(2)    c146      4320000
    B64(2)    c147      -4320000
    B64(2)    c148      4320000
    B65(2)    c149      -4320000
    B65(2)    c150      4320000
    B66(2)    c151      -4320000
    B66(2)    c152      4320000
    B67(2)    c153      -4320000
    B67(2)    c154      4320000
    B68(2)    c155      -4320000
    B68(2)    c156      4320000
    B69(2)    c157      -4320000
    B69(2)    c158      4320000
    B70(2)    c159      -4320000
    B70(2)    c160      4320000
    I71(12)   c24       1
    I71(12)   c48       -1
    I71(12)   c67       1
    I71(12)   c68       -1
    I71(12)   c69       1
    I71(12)   c70       -1
    I71(12)   c71       1
    I71(12)   c72       -1
    I71(12)   c73       1
    I71(12)   c74       -1
    I71(12)   c161      1
    I71(12)   c185      -1
    I72(13)   c25       1
    I72(13)   c48       1
    I72(13)   c49       -1
    I72(13)   c75       1
    I72(13)   c76       -1
    I72(13)   c77       1
    I72(13)   c78       -1
    I72(13)   c79       1
    I72(13)   c80       -1
    I72(13)   c81       1
    I72(13)   c82       -1
    I72(13)   c162      1
    I72(13)   c185      -1
    I73(13)   c26       1
    I73(13)   c49       1
    I73(13)   c50       -1
    I73(13)   c83       1
    I73(13)   c84       -1
    I73(13)   c85       1
    I73(13)   c86       -1
    I73(13)   c87       1
    I73(13)   c88       -1
    I73(13)   c89       1
    I73(13)   c90       -1
    I73(13)   c163      1
    I73(13)   c185      -1
    I74(15)   c27       1
    I74(15)   c50       1
    I74(15)   c51       -1
    I74(15)   c91       1
    I74(15)   c92       -1
    I74(15)   c93       1
    I74(15)   c94       -1
    I74(15)   c95       1
    I74(15)   c96       -1
    I74(15)   c97       1
    I74(15)   c98       -1
    I74(15)   c99       1
    I74(15)   c100      -1
    I74(15)   c164      1
    I74(15)   c185      -1
    I75(8)    c28       1
    I75(8)    c51       1
    I75(8)    c101      1
    I75(8)    c102      -1
    I75(8)    c103      1
    I75(8)    c104      -1
    I75(8)    c165      1
    I75(8)    c185      -1
    I76(12)   c29       1
    I76(12)   c52       -1
    I76(12)   c67       -1
    I76(12)   c68       1
    I76(12)   c105      1
    I76(12)   c106      -1
    I76(12)   c107      1
    I76(12)   c108      -1
    I76(12)   c109      1
    I76(12)   c110      -1
    I76(12)   c166      1
    I76(12)   c185      -1
    I77(15)   c30       1
    I77(15)   c52       1
    I77(15)   c53       -1
    I77(15)   c91       -1
    I77(15)   c92       1
    I77(15)   c111      1
    I77(15)   c112      -1
    I77(15)   c113      1
    I77(15)   c114      -1
    I77(15)   c115      1
    I77(15)   c116      -1
    I77(15)   c117      1
    I77(15)   c118      -1
    I77(15)   c167      1
    I77(15)   c185      -1
    I78(13)   c31       1
    I78(13)   c53       1
    I78(13)   c54       -1
    I78(13)   c83       -1
    I78(13)   c84       1
    I78(13)   c119      1
    I78(13)   c120      -1
    I78(13)   c121      1
    I78(13)   c122      -1
    I78(13)   c123      1
    I78(13)   c124      -1
    I78(13)   c168      1
    I78(13)   c185      -1
    I79(9)    c32       1
    I79(9)    c54       1
    I79(9)    c55       -1
    I79(9)    c101      -1
    I79(9)    c102      1
    I79(9)    c125      1
    I79(9)    c126      -1
    I79(9)    c169      1
    I79(9)    c185      -1
    I80(12)   c33       1
    I80(12)   c55       1
    I80(12)   c75       -1
    I80(12)   c76       1
    I80(12)   c127      1
    I80(12)   c128      -1
    I80(12)   c129      1
    I80(12)   c130      -1
    I80(12)   c131      1
    I80(12)   c132      -1
    I80(12)   c170      1
    I80(12)   c185      -1
    I81(12)   c34       1
    I81(12)   c56       -1
    I81(12)   c69       -1
    I81(12)   c70       1
    I81(12)   c105      -1
    I81(12)   c106      1
    I81(12)   c133      1
    I81(12)   c134      -1
    I81(12)   c135      1
    I81(12)   c136      -1
    I81(12)   c171      1
    I81(12)   c185      -1
    I82(9)    c35       1
    I82(9)    c56       1
    I82(9)    c57       -1
    I82(9)    c103      -1
    I82(9)    c104      1
    I82(9)    c125      -1
    I82(9)    c126      1
    I82(9)    c172      1
    I82(9)    c185      -1
    I83(13)   c36       1
    I83(13)   c57       1
    I83(13)   c58       -1
    I83(13)   c77       -1
    I83(13)   c78       1
    I83(13)   c127      -1
    I83(13)   c128      1
    I83(13)   c137      1
    I83(13)   c138      -1
    I83(13)   c139      1
    I83(13)   c140      -1
    I83(13)   c173      1
    I83(13)   c185      -1
    I84(13)   c37       1
    I84(13)   c58       1
    I84(13)   c59       -1
    I84(13)   c85       -1
    I84(13)   c86       1
    I84(13)   c119      -1
    I84(13)   c120      1
    I84(13)   c141      1
    I84(13)   c142      -1
    I84(13)   c143      1
    I84(13)   c144      -1
    I84(13)   c174      1
    I84(13)   c185      -1
    I85(14)   c38       1
    I85(14)   c59       1
    I85(14)   c93       -1
    I85(14)   c94       1
    I85(14)   c111      -1
    I85(14)   c112      1
    I85(14)   c145      1
    I85(14)   c146      -1
    I85(14)   c147      1
    I85(14)   c148      -1
    I85(14)   c149      1
    I85(14)   c150      -1
    I85(14)   c175      1
    I85(14)   c185      -1
    I86(12)   c39       1
    I86(12)   c60       -1
    I86(12)   c71       -1
    I86(12)   c72       1
    I86(12)   c107      -1
    I86(12)   c108      1
    I86(12)   c133      -1
    I86(12)   c134      1
    I86(12)   c151      1
    I86(12)   c152      -1
    I86(12)   c176      1
    I86(12)   c185      -1
    I87(13)   c40       1
    I87(13)   c60       1
    I87(13)   c61       -1
    I87(13)   c87       -1
    I87(13)   c88       1
    I87(13)   c121      -1
    I87(13)   c122      1
    I87(13)   c141      -1
    I87(13)   c142      1
    I87(13)   c153      1
    I87(13)   c154      -1
    I87(13)   c177      1
    I87(13)   c185      -1
    I88(13)   c41       1
    I88(13)   c61       1
    I88(13)   c62       -1
    I88(13)   c79       -1
    I88(13)   c80       1
    I88(13)   c129      -1
    I88(13)   c130      1
    I88(13)   c137      -1
    I88(13)   c138      1
    I88(13)   c155      1
    I88(13)   c156      -1
    I88(13)   c178      1
    I88(13)   c185      -1
    I89(14)   c42       1
    I89(14)   c62       1
    I89(14)   c95       -1
    I89(14)   c96       1
    I89(14)   c113      -1
    I89(14)   c114      1
    I89(14)   c145      -1
    I89(14)   c146      1
    I89(14)   c157      1
    I89(14)   c158      -1
    I89(14)   c159      1
    I89(14)   c160      -1
    I89(14)   c179      1
    I89(14)   c185      -1
    I90(12)   c43       1
    I90(12)   c63       -1
    I90(12)   c73       -1
    I90(12)   c74       1
    I90(12)   c109      -1
    I90(12)   c110      1
    I90(12)   c135      -1
    I90(12)   c136      1
    I90(12)   c151      -1
    I90(12)   c152      1
    I90(12)   c180      1
    I90(12)   c185      -1
    I91(13)   c44       1
    I91(13)   c63       1
    I91(13)   c64       -1
    I91(13)   c89       -1
    I91(13)   c90       1
    I91(13)   c123      -1
    I91(13)   c124      1
    I91(13)   c143      -1
    I91(13)   c144      1
    I91(13)   c153      -1
    I91(13)   c154      1
    I91(13)   c181      1
    I91(13)   c185      -1
    I92(13)   c45       1
    I92(13)   c64       1
    I92(13)   c65       -1
    I92(13)   c97       -1
    I92(13)   c98       1
    I92(13)   c115      -1
    I92(13)   c116      1
    I92(13)   c147      -1
    I92(13)   c148      1
    I92(13)   c157      -1
    I92(13)   c158      1
    I92(13)   c182      1
    I92(13)   c185      -1
    I93(13)   c46       1
    I93(13)   c65       1
    I93(13)   c66       -1
    I93(13)   c81       -1
    I93(13)   c82       1
    I93(13)   c131      -1
    I93(13)   c132      1
    I93(13)   c139      -1
    I93(13)   c140      1
    I93(13)   c155      -1
    I93(13)   c156      1
    I93(13)   c183      1
    I93(13)   c185      -1
    I94(12)   c47       1
    I94(12)   c66       1
    I94(12)   c99       -1
    I94(12)   c100      1
    I94(12)   c117      -1
    I94(12)   c118      1
    I94(12)   c149      -1
    I94(12)   c150      1
    I94(12)   c159      -1
    I94(12)   c160      1
    I94(12)   c184      1
    I94(12)   c185      -1
    I95(1)    OBJ       1
    I95(1)    c185      1
    MARKER    'MARKER'                 'INTEND'
RHS
    RHS1      c0        1
    RHS1      c1        1
    RHS1      c2        1
    RHS1      c3        1
    RHS1      c4        1
    RHS1      c5        1
    RHS1      c6        1
    RHS1      c7        1
    RHS1      c8        1
    RHS1      c9        1
    RHS1      c10       1
    RHS1      c11       1
    RHS1      c12       1
    RHS1      c13       1
    RHS1      c14       1
    RHS1      c15       1
    RHS1      c16       1
    RHS1      c17       1
    RHS1      c18       1
    RHS1      c19       1
    RHS1      c20       1
    RHS1      c21       1
    RHS1      c22       1
    RHS1      c23       1
    RHS1      c67       -12958560
    RHS1      c68       -8638560
    RHS1      c69       -12958560
    RHS1      c70       -8638560
    RHS1      c71       -12958560
    RHS1      c72       -8638560
    RHS1      c73       -12957120
    RHS1      c74       -8638560
    RHS1      c75       -12958560
    RHS1      c76       -8637120
    RHS1      c77       -12955680
    RHS1      c78       -8637120
    RHS1      c79       -12957120
    RHS1      c80       -8637120
    RHS1      c81       -12958560
    RHS1      c82       -8637120
    RHS1      c83       -12958560
    RHS1      c84       -8637120
    RHS1      c85       -12958560
    RHS1      c86       -8637120
    RHS1      c87       -12957120
    RHS1      c88       -8637120
    RHS1      c89       -12958560
    RHS1      c90       -8637120
    RHS1      c91       -12958560
    RHS1      c92       -8638560
    RHS1      c93       -12958560
    RHS1      c94       -8638560
    RHS1      c95       -12957120
    RHS1      c96       -8638560
    RHS1      c97       -12958560
    RHS1      c98       -8638560
    RHS1      c99       -12958560
    RHS1      c100      -8638560
    RHS1      c101      -12958560
    RHS1      c102      -8638560
    RHS1      c103      -12957120
    RHS1      c104      -8638560
    RHS1      c105      -12958560
    RHS1      c106      -8638560
    RHS1      c107      -12958560
    RHS1      c108      -8638560
    RHS1      c109      -12957120
    RHS1      c110      -8638560
    RHS1      c111      -12958560
    RHS1      c112      -8638560
    RHS1      c113      -12957120
    RHS1      c114      -8638560
    RHS1      c115      -12958560
    RHS1      c116      -8638560
    RHS1      c117      -12958560
    RHS1      c118      -8638560
    RHS1      c119      -12958560
    RHS1      c120      -8638560
    RHS1      c121      -12957120
    RHS1      c122      -8638560
    RHS1      c123      -12958560
    RHS1      c124      -8638560
    RHS1      c125      -12957120
    RHS1      c126      -8638560
    RHS1      c127      -12955680
    RHS1      c128      -8638560
    RHS1      c129      -12957120
    RHS1      c130      -8638560
    RHS1      c131      -12958560
    RHS1      c132      -8638560
    RHS1      c133      -12958560
    RHS1      c134      -8638560
    RHS1      c135      -12957120
    RHS1      c136      -8638560
    RHS1      c137      -12957120
    RHS1      c138      -8635680
    RHS1      c139      -12958560
    RHS1      c140      -8635680
    RHS1      c141      -12957120
    RHS1      c142      -8638560
    RHS1      c143      -12958560
    RHS1      c144      -8638560
    RHS1      c145      -12957120
    RHS1      c146      -8638560
    RHS1      c147      -12958560
    RHS1      c148      -8638560
    RHS1      c149      -12958560
    RHS1      c150      -8638560
    RHS1      c151      -12957120
    RHS1      c152      -8638560
    RHS1      c153      -12958560
    RHS1      c154      -8637120
    RHS1      c155      -12958560
    RHS1      c156      -8637120
    RHS1      c157      -12958560
    RHS1      c158      -8637120
    RHS1      c159      -12958560
    RHS1      c160      -8637120
BOUNDS
 BV BND1      B0(12)  
 BV BND1      B1(12)  
 BV BND1      B2(12)  
 BV BND1      B3(14)  
 BV BND1      B4(7)   
 BV BND1      B5(12)  
 BV BND1      B6(14)  
 BV BND1      B7(12)  
 BV BND1      B8(8)   
 BV BND1      B9(11)  
 BV BND1      B10(13) 
 BV BND1      B11(9)  
 BV BND1      B12(13) 
 BV BND1      B13(13) 
 BV BND1      B14(14) 
 BV BND1      B15(13) 
 BV BND1      B16(13) 
 BV BND1      B17(13) 
 BV BND1      B18(14) 
 BV BND1      B19(12) 
 BV BND1      B20(12) 
 BV BND1      B21(12) 
 BV BND1      B22(12) 
 BV BND1      B23(11) 
 BV BND1      B24(2)  
 BV BND1      B25(2)  
 BV BND1      B26(2)  
 BV BND1      B27(2)  
 BV BND1      B28(2)  
 BV BND1      B29(2)  
 BV BND1      B30(2)  
 BV BND1      B31(2)  
 BV BND1      B32(2)  
 BV BND1      B33(2)  
 BV BND1      B34(2)  
 BV BND1      B35(2)  
 BV BND1      B36(2)  
 BV BND1      B37(2)  
 BV BND1      B38(2)  
 BV BND1      B39(2)  
 BV BND1      B40(2)  
 BV BND1      B41(2)  
 BV BND1      B42(2)  
 BV BND1      B43(2)  
 BV BND1      B44(2)  
 BV BND1      B45(2)  
 BV BND1      B46(2)  
 BV BND1      B47(2)  
 BV BND1      B48(2)  
 BV BND1      B49(2)  
 BV BND1      B50(2)  
 BV BND1      B51(2)  
 BV BND1      B52(2)  
 BV BND1      B53(2)  
 BV BND1      B54(2)  
 BV BND1      B55(2)  
 BV BND1      B56(2)  
 BV BND1      B57(2)  
 BV BND1      B58(2)  
 BV BND1      B59(2)  
 BV BND1      B60(2)  
 BV BND1      B61(2)  
 BV BND1      B62(2)  
 BV BND1      B63(2)  
 BV BND1      B64(2)  
 BV BND1      B65(2)  
 BV BND1      B66(2)  
 BV BND1      B67(2)  
 BV BND1      B68(2)  
 BV BND1      B69(2)  
 BV BND1      B70(2)  
 LI BND1      I71(12)   0
 LI BND1      I72(13)   0
 LI BND1      I73(13)   0
 LI BND1      I74(15)   0
 LI BND1      I75(8)    0
 LI BND1      I76(12)   0
 LI BND1      I77(15)   0
 LI BND1      I78(13)   0
 LI BND1      I79(9)    0
 LI BND1      I80(12)   0
 LI BND1      I81(12)   0
 LI BND1      I82(9)    0
 LI BND1      I83(13)   0
 LI BND1      I84(13)   0
 LI BND1      I85(14)   0
 LI BND1      I86(12)   0
 LI BND1      I87(13)   0
 LI BND1      I88(13)   0
 LI BND1      I89(14)   0
 LI BND1      I90(12)   0
 LI BND1      I91(13)   0
 LI BND1      I92(13)   0
 LI BND1      I93(13)   0
 LI BND1      I94(12)   0
 LI BND1      I95(1)    0
ENDATA
